% Logging successfully configured
%%%mzn-stat: initTime=0.004261949
%%%mzn-stat: objective=1031
%%%mzn-stat: nodes=253
%%%mzn-stat: restarts=0
%%%mzn-stat: peakDepth=253
%%%mzn-stat: solveTime=0.00114508
%%%mzn-stat: variables=705
%%%mzn-stat: propagators=423
%%%mzn-stat: failures=0
%%%mzn-stat: propagations=1373
%%%mzn-stat: nogoods=0
%%%mzn-stat: numAtomicConstraintsPropagated=0
%%%mzn-stat: allDifferentNumber1PropagationsTotal=35
%%%mzn-stat: allDifferentNumber1PropagationsThatFoundConflict=0
%%%mzn-stat: allDifferentNumber1PropagationsThatPruned=19
%%%mzn-stat: allDifferentNumber1TotalValuesPruned=140
%%%mzn-stat: allDifferentNumber1TotalHallSetSizeConflict=0
%%%mzn-stat: allDifferentNumber1NumberOfConflicts=0
%%%mzn-stat: allDifferentNumber1MaxHallSetSizeConflict=0
%%%mzn-stat: allDifferentNumber1TotalPruningHallSetSize=2011
%%%mzn-stat: allDifferentNumber1NumberOfPruningExplanations=140
%%%mzn-stat: allDifferentNumber1MaxPruningHallSetSize=48
%%%mzn-stat: allDifferentNumber1TotalFixedEdgesAtConflict=0
%%%mzn-stat: allDifferentNumber1TotalVarsInvolvedInPruning=92
%%%mzn-stat: allDifferentNumber1MaxValuesPrunedFromSingleVar=10
%%%mzn-stat: allDifferentNumber1TotalSccSizeAtPruning=320
%%%mzn-stat: allDifferentNumber1NumberOfSccPruningCalls=19
%%%mzn-stat: circuitNumber2PropagationsThatFoundConflict=0
%%%mzn-stat: circuitNumber2TotalFixedEdgesAtConflict=0
%%%mzn-stat: circuitNumber2NumberOfConflicts=0
%%%mzn-stat: circuitNumber2PropagationsThatPruned=3
%%%mzn-stat: circuitNumber2PropagationsTotal=19
%%%mzn-stat: AverageConflictSize=0
%%%mzn-stat: NumUnitNogoodsLearned=0
%%%mzn-stat: AverageLearnedNogoodLength=0
%%%mzn-stat: AverageBacktrackAmount=0
%%%mzn-stat: AverageLbd=0
%%%mzn-stat: 2AutonomousSearchNumBackupCalled=238
%%%mzn-stat: 2AutonomousSearchNumPredicatesRemoved=0
%%%mzn-stat: 2AutonomousSearchNumCalls=239
%%%mzn-stat: 2AutonomousSearchNumPredicatesAdded=0
%%%mzn-stat: 2AutonomousSearchAverageSizeOfHeap=0
%%%mzn-stat: 2AutonomousSearchNumAssignedPredicatesEncountered=0
%%%mzn-stat-end
maxleg = 1031;
succ = array1d(1..50,[20, 8, 7, 50, 11, 22, 10, 9, 42, 28, 12, 18, 2, 47, 31, 3, 19, 1, 25, 21, 35, 46, 48, 17, 34, 23, 40, 38, 33, 36, 43, 29, 49, 15, 44, 37, 41, 5, 24, 16, 6, 45, 30, 13, 14, 32, 26, 4, 27, 39]);
% time elapsed: 2.29 s
----------
%%%mzn-stat: initTime=0.004261949
%%%mzn-stat: objective=991
%%%mzn-stat: nodes=502
%%%mzn-stat: restarts=0
%%%mzn-stat: peakDepth=253
%%%mzn-stat: solveTime=0.002213551
%%%mzn-stat: variables=705
%%%mzn-stat: propagators=423
%%%mzn-stat: failures=0
%%%mzn-stat: propagations=2090
%%%mzn-stat: nogoods=0
%%%mzn-stat: numAtomicConstraintsPropagated=0
%%%mzn-stat: allDifferentNumber1PropagationsTotal=67
%%%mzn-stat: allDifferentNumber1PropagationsThatFoundConflict=0
%%%mzn-stat: allDifferentNumber1PropagationsThatPruned=36
%%%mzn-stat: allDifferentNumber1TotalValuesPruned=244
%%%mzn-stat: allDifferentNumber1TotalHallSetSizeConflict=0
%%%mzn-stat: allDifferentNumber1NumberOfConflicts=0
%%%mzn-stat: allDifferentNumber1MaxHallSetSizeConflict=0
%%%mzn-stat: allDifferentNumber1TotalPruningHallSetSize=3039
%%%mzn-stat: allDifferentNumber1NumberOfPruningExplanations=244
%%%mzn-stat: allDifferentNumber1MaxPruningHallSetSize=48
%%%mzn-stat: allDifferentNumber1TotalFixedEdgesAtConflict=0
%%%mzn-stat: allDifferentNumber1TotalVarsInvolvedInPruning=169
%%%mzn-stat: allDifferentNumber1MaxValuesPrunedFromSingleVar=10
%%%mzn-stat: allDifferentNumber1TotalSccSizeAtPruning=565
%%%mzn-stat: allDifferentNumber1NumberOfSccPruningCalls=36
%%%mzn-stat: circuitNumber2PropagationsThatFoundConflict=0
%%%mzn-stat: circuitNumber2TotalFixedEdgesAtConflict=0
%%%mzn-stat: circuitNumber2NumberOfConflicts=0
%%%mzn-stat: circuitNumber2PropagationsThatPruned=5
%%%mzn-stat: circuitNumber2PropagationsTotal=36
%%%mzn-stat: AverageConflictSize=0
%%%mzn-stat: NumUnitNogoodsLearned=0
%%%mzn-stat: AverageLearnedNogoodLength=0
%%%mzn-stat: AverageBacktrackAmount=0
%%%mzn-stat: AverageLbd=0
%%%mzn-stat: 2AutonomousSearchNumBackupCalled=472
%%%mzn-stat: 2AutonomousSearchNumPredicatesRemoved=0
%%%mzn-stat: 2AutonomousSearchNumCalls=474
%%%mzn-stat: 2AutonomousSearchNumPredicatesAdded=0
%%%mzn-stat: 2AutonomousSearchAverageSizeOfHeap=0
%%%mzn-stat: 2AutonomousSearchNumAssignedPredicatesEncountered=0
%%%mzn-stat-end
maxleg = 991;
succ = array1d(1..50,[20, 8, 7, 50, 12, 11, 10, 9, 42, 28, 13, 18, 2, 47, 31, 3, 19, 1, 25, 21, 35, 17, 48, 22, 34, 23, 40, 38, 33, 36, 32, 29, 49, 15, 44, 37, 41, 5, 24, 16, 6, 45, 30, 46, 14, 43, 26, 4, 27, 39]);
% time elapsed: 2.29 s
----------
%%%mzn-stat: initTime=0.004261949
%%%mzn-stat: objective=975
%%%mzn-stat: nodes=756
%%%mzn-stat: restarts=0
%%%mzn-stat: peakDepth=253
%%%mzn-stat: solveTime=0.003804586
%%%mzn-stat: variables=705
%%%mzn-stat: propagators=423
%%%mzn-stat: failures=2
%%%mzn-stat: propagations=2883
%%%mzn-stat: nogoods=2
%%%mzn-stat: numAtomicConstraintsPropagated=0
%%%mzn-stat: allDifferentNumber1PropagationsTotal=104
%%%mzn-stat: allDifferentNumber1PropagationsThatFoundConflict=1
%%%mzn-stat: allDifferentNumber1PropagationsThatPruned=56
%%%mzn-stat: allDifferentNumber1TotalValuesPruned=370
%%%mzn-stat: allDifferentNumber1TotalHallSetSizeConflict=2
%%%mzn-stat: allDifferentNumber1NumberOfConflicts=1
%%%mzn-stat: allDifferentNumber1MaxHallSetSizeConflict=2
%%%mzn-stat: allDifferentNumber1TotalPruningHallSetSize=4318
%%%mzn-stat: allDifferentNumber1NumberOfPruningExplanations=370
%%%mzn-stat: allDifferentNumber1MaxPruningHallSetSize=48
%%%mzn-stat: allDifferentNumber1TotalFixedEdgesAtConflict=49
%%%mzn-stat: allDifferentNumber1TotalVarsInvolvedInPruning=261
%%%mzn-stat: allDifferentNumber1MaxValuesPrunedFromSingleVar=10
%%%mzn-stat: allDifferentNumber1TotalSccSizeAtPruning=935
%%%mzn-stat: allDifferentNumber1NumberOfSccPruningCalls=56
%%%mzn-stat: circuitNumber2PropagationsThatFoundConflict=1
%%%mzn-stat: circuitNumber2TotalFixedEdgesAtConflict=48
%%%mzn-stat: circuitNumber2NumberOfConflicts=1
%%%mzn-stat: circuitNumber2PropagationsThatPruned=9
%%%mzn-stat: circuitNumber2PropagationsTotal=56
%%%mzn-stat: AverageConflictSize=6.5
%%%mzn-stat: NumUnitNogoodsLearned=0
%%%mzn-stat: AverageLearnedNogoodLength=23.5
%%%mzn-stat: AverageBacktrackAmount=0
%%%mzn-stat: AverageLbd=11.5
%%%mzn-stat: 2AutonomousSearchNumBackupCalled=711
%%%mzn-stat: 2AutonomousSearchNumPredicatesRemoved=0
%%%mzn-stat: 2AutonomousSearchNumCalls=714
%%%mzn-stat: 2AutonomousSearchNumPredicatesAdded=266
%%%mzn-stat: 2AutonomousSearchAverageSizeOfHeap=0.37254901960784315
%%%mzn-stat: 2AutonomousSearchNumAssignedPredicatesEncountered=266
%%%mzn-stat-end
maxleg = 975;
succ = array1d(1..50,[20, 8, 7, 50, 12, 11, 10, 9, 42, 28, 13, 22, 2, 47, 31, 18, 19, 1, 25, 21, 35, 17, 48, 43, 34, 23, 40, 49, 33, 36, 4, 38, 15, 29, 44, 37, 41, 5, 24, 16, 6, 45, 30, 46, 14, 32, 26, 3, 27, 39]);
% time elapsed: 2.29 s
----------
%%%mzn-stat: initTime=0.004261949
%%%mzn-stat: objective=958
%%%mzn-stat: nodes=1004
%%%mzn-stat: restarts=0
%%%mzn-stat: peakDepth=253
%%%mzn-stat: solveTime=0.004927153
%%%mzn-stat: variables=705
%%%mzn-stat: propagators=423
%%%mzn-stat: failures=3
%%%mzn-stat: propagations=3630
%%%mzn-stat: nogoods=3
%%%mzn-stat: numAtomicConstraintsPropagated=0
%%%mzn-stat: allDifferentNumber1PropagationsTotal=133
%%%mzn-stat: allDifferentNumber1PropagationsThatFoundConflict=1
%%%mzn-stat: allDifferentNumber1PropagationsThatPruned=72
%%%mzn-stat: allDifferentNumber1TotalValuesPruned=489
%%%mzn-stat: allDifferentNumber1TotalHallSetSizeConflict=2
%%%mzn-stat: allDifferentNumber1NumberOfConflicts=1
%%%mzn-stat: allDifferentNumber1MaxHallSetSizeConflict=2
%%%mzn-stat: allDifferentNumber1TotalPruningHallSetSize=5524
%%%mzn-stat: allDifferentNumber1NumberOfPruningExplanations=489
%%%mzn-stat: allDifferentNumber1MaxPruningHallSetSize=48
%%%mzn-stat: allDifferentNumber1TotalFixedEdgesAtConflict=49
%%%mzn-stat: allDifferentNumber1TotalVarsInvolvedInPruning=347
%%%mzn-stat: allDifferentNumber1MaxValuesPrunedFromSingleVar=10
%%%mzn-stat: allDifferentNumber1TotalSccSizeAtPruning=1279
%%%mzn-stat: allDifferentNumber1NumberOfSccPruningCalls=72
%%%mzn-stat: circuitNumber2PropagationsThatFoundConflict=2
%%%mzn-stat: circuitNumber2TotalFixedEdgesAtConflict=94
%%%mzn-stat: circuitNumber2NumberOfConflicts=2
%%%mzn-stat: circuitNumber2PropagationsThatPruned=11
%%%mzn-stat: circuitNumber2PropagationsTotal=72
%%%mzn-stat: AverageConflictSize=10.333333333333334
%%%mzn-stat: NumUnitNogoodsLearned=0
%%%mzn-stat: AverageLearnedNogoodLength=23.666666666666668
%%%mzn-stat: AverageBacktrackAmount=0
%%%mzn-stat: AverageLbd=11
%%%mzn-stat: 2AutonomousSearchNumBackupCalled=946
%%%mzn-stat: 2AutonomousSearchNumPredicatesRemoved=0
%%%mzn-stat: 2AutonomousSearchNumCalls=950
%%%mzn-stat: 2AutonomousSearchNumPredicatesAdded=348
%%%mzn-stat: 2AutonomousSearchAverageSizeOfHeap=0.6021052631578947
%%%mzn-stat: 2AutonomousSearchNumAssignedPredicatesEncountered=572
%%%mzn-stat-end
maxleg = 958;
succ = array1d(1..50,[20, 8, 7, 50, 12, 11, 10, 27, 42, 28, 9, 22, 2, 47, 31, 18, 19, 1, 15, 21, 35, 17, 48, 43, 34, 23, 40, 49, 33, 25, 4, 38, 44, 29, 39, 37, 41, 5, 36, 16, 6, 45, 30, 46, 14, 32, 26, 3, 24, 13]);
% time elapsed: 2.29 s
----------
==========
% time elapsed: 2.29 s
%%%mzn-stat: initTime=0.004261949
%%%mzn-stat: objective=958
%%%mzn-stat: nodes=1004
%%%mzn-stat: restarts=0
%%%mzn-stat: peakDepth=253
%%%mzn-stat: solveTime=0.004998632
%%%mzn-stat: variables=705
%%%mzn-stat: propagators=423
%%%mzn-stat: failures=4
%%%mzn-stat: propagations=3672
%%%mzn-stat: nogoods=4
%%%mzn-stat: numAtomicConstraintsPropagated=0
%%%mzn-stat: allDifferentNumber1PropagationsTotal=134
%%%mzn-stat: allDifferentNumber1PropagationsThatFoundConflict=2
%%%mzn-stat: allDifferentNumber1PropagationsThatPruned=72
%%%mzn-stat: allDifferentNumber1TotalValuesPruned=489
%%%mzn-stat: allDifferentNumber1TotalHallSetSizeConflict=45
%%%mzn-stat: allDifferentNumber1NumberOfConflicts=2
%%%mzn-stat: allDifferentNumber1MaxHallSetSizeConflict=43
%%%mzn-stat: allDifferentNumber1TotalPruningHallSetSize=5524
%%%mzn-stat: allDifferentNumber1NumberOfPruningExplanations=489
%%%mzn-stat: allDifferentNumber1MaxPruningHallSetSize=48
%%%mzn-stat: allDifferentNumber1TotalFixedEdgesAtConflict=56
%%%mzn-stat: allDifferentNumber1TotalVarsInvolvedInPruning=347
%%%mzn-stat: allDifferentNumber1MaxValuesPrunedFromSingleVar=10
%%%mzn-stat: allDifferentNumber1TotalSccSizeAtPruning=1279
%%%mzn-stat: allDifferentNumber1NumberOfSccPruningCalls=72
%%%mzn-stat: circuitNumber2PropagationsThatFoundConflict=2
%%%mzn-stat: circuitNumber2TotalFixedEdgesAtConflict=94
%%%mzn-stat: circuitNumber2NumberOfConflicts=2
%%%mzn-stat: circuitNumber2PropagationsThatPruned=11
%%%mzn-stat: circuitNumber2PropagationsTotal=72
%%%mzn-stat: AverageConflictSize=9.5
%%%mzn-stat: NumUnitNogoodsLearned=1
%%%mzn-stat: AverageLearnedNogoodLength=18
%%%mzn-stat: AverageBacktrackAmount=0
%%%mzn-stat: AverageLbd=8.5
%%%mzn-stat: 2AutonomousSearchNumBackupCalled=946
%%%mzn-stat: 2AutonomousSearchNumPredicatesRemoved=0
%%%mzn-stat: 2AutonomousSearchNumCalls=950
%%%mzn-stat: 2AutonomousSearchNumPredicatesAdded=403
%%%mzn-stat: 2AutonomousSearchAverageSizeOfHeap=0.6021052631578947
%%%mzn-stat: 2AutonomousSearchNumAssignedPredicatesEncountered=572
%%%mzn-stat-end
